6378.1 6387.46 6415.05 6459.44 6518.21 6588.02 6664.62 6743.02 6817.76 6883.27 6934.4 6966.93 6978.1 6966.93 6934.4 6883.27 6817.76 6743.02 6664.62 6588.02 6518.21 6459.44 6415.05 6387.46 6378.1 6387.46 6415.05 6459.44 6518.21 6588.02 6664.62 6743.02 6817.76 6883.27 6934.4 6966.93 6978.1 6966.93 6934.4 6883.27 6817.76 6743.02 6664.62 6588.02 6518.21 6459.44 6415.05 6387.46 6378.1 6387.46 6415.05 6459.44 6518.21 6588.02 6664.62 6743.02 6817.76 6883.27 6934.4 6966.93 6978.1 6966.93 6934.4 6883.27 6817.76 6743.02 6664.62 6588.02 6518.21 6459.44 6415.05 6387.46 6378.1 